/*********************************************
 * OPL 12.6.0.0 Data
 * Author: Adrian Rodriguez Bazaga, Pau Rodriguez Esmerats
 * Creation Date: 06/12/2017 at 23:03:05
 *********************************************/

nNurses=251;
maxConsec=2;
maxPresence=7;
maxHours=5;
minHours=1;
hours=24;
demand= [39 51 67 60 51 67 60 53 53 23 3 4 4 6 7 4 4 4 4 2 32 59 30 46  ];
